proyfinal/src/viki/013/andrea/andrea-localstore/experimentInOfficeAgust.take6/worker_1/372083d0-ff1a-4735-9892-4db4203c22d8.als.cnf.out
Reading from standard input... Use '--help' for help.
============================[ Problem Statistics ]=============================
|                                                                             |
|  Number of variables:         87638                                         |
|  Number of clauses:          161767                                         |
|  Parse time:                   0.03 s                                       |
|                                                                             |
============================[ Search Statistics ]==============================
| Conflicts |          ORIGINAL         |          LEARNT          | Progress |
|           |    Vars  Clauses Literals |    Limit  Clauses Lit/Cl |          |
===============================================================================
|       100 |   62277   104794   261916 |    38424      100     10 | 28.938 % |
|       250 |   62277   104794   261916 |    42266      250     24 | 28.938 % |
|       475 |   62277   104794   261916 |    46493      475     58 | 28.938 % |
|       812 |   62277   104794   261916 |    51142      812     99 | 28.938 % |
|      1318 |   62277   104794   261916 |    56257     1318     99 | 28.939 % |
|      2077 |   62277   104794   261916 |    61882     2077     94 | 28.939 % |
|      3216 |   62243   104654   261592 |    68071     3214    112 | 28.977 % |
|      4924 |   62241   104649   261576 |    74878     4921    123 | 28.979 % |
|      7486 |   62241   104649   261576 |    82366     7483    127 | 28.979 % |
===============================================================================
restarts              : 46
conflicts             : 10677          (6030 /sec)
decisions             : 36546          (0.00 % random) (20639 /sec)
propagations          : 18064446       (10201493 /sec)
conflict literals     : 1272163        (47.57 % deleted)
Memory used           : 28.77 MB
CPU time              : 1.77076 s

UNSATISFIABLE
